p cnf 12 31
12 10 3 0
12 8 2 0
-12 -7 5 0
12 -5 2 0
-11 -9 -8 0
-11 9 -5 0
11 -7 4 0
-11 -6 3 0
-11 6 -1 0
11 4 -3 0
-10 9 3 0
-10 8 2 0
10 7 -3 0
-10 -7 -3 0
-10 3 2 0
9 -8 7 0
9 8 -2 0
-9 -7 4 0
9 -6 4 0
-9 4 3 0
8 7 -3 0
-8 -3 1 0
-7 6 -4 0
-7 4 3 0
7 -4 -1 0
-7 -2 1 0
7 -2 1 0
5 -3 2 0
5 -3 -1 0
5 2 -1 0
4 3 -2 0
